p tw 60 120
0 1
0 2
0 20
0 21
1 2
1 3
1 37
2 3
2 4
3 4
3 37
4 7
4 22
5 6
5 7
5 51
5 59
6 7
6 22
6 23
7 22
8 9
8 10
8 11
8 27
9 10
9 17
9 54
10 27
10 39
11 12
11 13
11 27
12 13
12 42
12 43
13 42
13 50
14 15
14 16
14 28
14 29
15 16
15 20
15 40
16 29
16 48
17 18
17 19
17 54
18 19
18 28
18 58
19 39
19 58
20 21
20 40
21 40
21 41
22 23
23 33
23 38
24 25
24 26
24 30
24 57
25 26
25 30
25 31
26 52
26 56
27 39
28 29
28 58
29 48
30 31
30 57
31 35
31 36
32 33
32 34
32 37
32 38
33 34
33 38
34 47
34 55
35 36
35 44
35 48
36 41
36 44
37 38
39 58
40 41
41 44
42 43
42 50
43 53
43 56
44 48
45 46
45 47
45 55
45 57
46 47
46 52
46 53
47 55
49 50
49 51
49 54
49 59
50 51
51 59
52 53
52 56
53 56
54 59
55 57
